width = 39;

n_circuits = 29;

circuit_x = array1d(1..29, [3, 3, 3, 3, 3, 3, 3, 3, 3, 3, 4, 4, 4, 4, 4, 4, 4, 4,
    4, 5, 5, 5, 5, 5, 5, 5, 5, 5, 15]);

circuit_y = array1d(1..29, [3, 4, 5, 6, 7, 8, 9, 10, 11, 15, 3, 4, 5, 6, 8, 9, 12,
    15, 16, 3, 4, 5, 6, 8, 10, 11, 13, 18, 39]);

opt_height = 39;

max_y = 39;

